Total weight: 1084.0
Route 1: 0 65 82 99 52 83 64 19 18 21 23 75 87 9 15 16 17 47 11 10 78 60 6 7 8 46 4 45 5 3 1 70 68 80 91 56 66 20 48 25 77 58 74 0 
Route 2: 0 61 44 42 72 71 67 89 76 63 33 31 29 27 26 28 30 32 34 35 36 37 38 40 43 39 41 54 93 96 0 
Route 3: 0 90 12 14 73 79 2 100 81 94 92 95 84 62 50 85 51 49 22 24 57 86 59 97 13 0 
Route 4: 0 69 98 53 88 55 0 
